param n := 120;
param c := 10000
param : V : p w :=
   0	 376	 366
   1	 278	 268
   2	 376	 366
   3	 440	 430
   4	 273	 263
   5	 317	 307
   6	 424	 414
   7	 297	 287
   8	 309	 299
   9	 505	 495
  10	 261	 251
  11	 264	 254
  12	 484	 474
  13	 262	 252
  14	 284	 274
  15	 380	 370
  16	 279	 269
  17	 371	 361
  18	 483	 473
  19	 262	 252
  20	 285	 275
  21	 482	 472
  22	 269	 259
  23	 279	 269
  24	 454	 444
  25	 268	 258
  26	 308	 298
  27	 449	 439
  28	 283	 273
  29	 298	 288
  30	 455	 445
  31	 282	 272
  32	 293	 283
  33	 429	 419
  34	 271	 261
  35	 330	 320
  36	 373	 363
  37	 281	 271
  38	 376	 366
  39	 365	 355
  40	 283	 273
  41	 382	 372
  42	 476	 466
  43	 272	 262
  44	 282	 272
  45	 367	 357
  46	 302	 292
  47	 361	 351
  48	 405	 395
  49	 265	 255
  50	 360	 350
  51	 360	 350
  52	 313	 303
  53	 357	 347
  54	 460	 450
  55	 262	 252
  56	 308	 298
  57	 420	 410
  58	 285	 275
  59	 325	 315
  60	 417	 407
  61	 270	 260
  62	 343	 333
  63	 376	 366
  64	 281	 271
  65	 373	 363
  66	 360	 350
  67	 304	 294
  68	 366	 356
  69	 490	 480
  70	 263	 253
  71	 277	 267
  72	 456	 446
  73	 269	 259
  74	 305	 295
  75	 386	 376
  76	 277	 267
  77	 367	 357
  78	 376	 366
  79	 292	 282
  80	 362	 352
  81	 488	 478
  82	 266	 256
  83	 276	 266
  84	 430	 420
  85	 261	 251
  86	 339	 329
  87	 444	 434
  88	 262	 252
  89	 324	 314
  90	 480	 470
  91	 264	 254
  92	 286	 276
  93	 507	 497
  94	 260	 250
  95	 263	 253
  96	 507	 497
  97	 260	 250
  98	 263	 253
  99	 455	 445
 100	 264	 254
 101	 311	 301
 102	 422	 412
 103	 273	 263
 104	 335	 325
 105	 410	 400
 106	 308	 298
 107	 312	 302
 108	 372	 362
 109	 292	 282
 110	 366	 356
 111	 415	 405
 112	 269	 259
 113	 346	 336
 114	 407	 397
 115	 300	 290
 116	 323	 313
 117	 495	 485
 118	 263	 253
 119	 272	 262
;

set E :=
   0	   1
   0	   2
   0	   4
   0	   6
   0	   8
   0	  13
   0	  14
   0	  17
   0	  18
   0	  19
   0	  21
   0	  22
   0	  23
   0	  25
   0	  28
   0	  29
   0	  32
   0	  35
   0	  40
   0	  44
   0	  45
   0	  46
   0	  49
   0	  51
   0	  52
   0	  53
   0	  54
   0	  55
   0	  56
   0	  57
   0	  58
   0	  59
   0	  61
   0	  63
   0	  67
   0	  71
   0	  75
   0	  76
   0	  77
   0	  82
   0	  87
   0	  89
   0	  91
   0	  92
   0	  93
   0	  94
   0	  95
   0	  97
   0	  98
   0	  99
   0	 100
   0	 103
   0	 104
   0	 107
   0	 109
   0	 110
   0	 111
   0	 112
   0	 114
   0	 115
   0	 118
   1	   3
   1	   6
   1	   8
   1	  10
   1	  11
   1	  12
   1	  14
   1	  20
   1	  24
   1	  26
   1	  27
   1	  29
   1	  30
   1	  32
   1	  33
   1	  35
   1	  38
   1	  42
   1	  45
   1	  46
   1	  50
   1	  52
   1	  53
   1	  55
   1	  58
   1	  61
   1	  65
   1	  67
   1	  72
   1	  74
   1	  76
   1	  78
   1	  82
   1	  83
   1	  88
   1	  89
   1	  91
   1	  92
   1	  93
   1	  94
   1	 100
   1	 101
   1	 102
   1	 103
   1	 105
   1	 108
   1	 109
   1	 110
   1	 112
   1	 115
   1	 116
   1	 117
   1	 118
   2	   4
   2	   5
   2	   7
   2	   9
   2	  11
   2	  16
   2	  20
   2	  21
   2	  23
   2	  24
   2	  25
   2	  27
   2	  28
   2	  30
   2	  35
   2	  36
   2	  42
   2	  43
   2	  44
   2	  45
   2	  49
   2	  52
   2	  53
   2	  54
   2	  57
   2	  58
   2	  59
   2	  69
   2	  70
   2	  72
   2	  73
   2	  76
   2	  77
   2	  79
   2	  81
   2	  85
   2	  89
   2	  92
   2	  95
   2	  97
   2	  98
   2	 100
   2	 101
   2	 104
   2	 105
   2	 106
   2	 107
   2	 113
   2	 114
   2	 118
   3	   5
   3	   8
   3	   9
   3	  11
   3	  12
   3	  13
   3	  16
   3	  18
   3	  22
   3	  24
   3	  25
   3	  26
   3	  27
   3	  28
   3	  31
   3	  32
   3	  33
   3	  34
   3	  35
   3	  38
   3	  41
   3	  43
   3	  44
   3	  46
   3	  47
   3	  48
   3	  49
   3	  51
   3	  52
   3	  55
   3	  57
   3	  60
   3	  61
   3	  65
   3	  67
   3	  68
   3	  71
   3	  73
   3	  76
   3	  78
   3	  82
   3	  85
   3	  86
   3	  87
   3	  89
   3	  90
   3	  92
   3	  93
   3	  96
   3	  99
   3	 103
   3	 104
   3	 105
   3	 106
   3	 107
   3	 110
   3	 112
   3	 117
   3	 118
   3	 119
   4	   5
   4	   6
   4	   7
   4	   9
   4	  11
   4	  12
   4	  15
   4	  22
   4	  23
   4	  26
   4	  27
   4	  32
   4	  33
   4	  35
   4	  36
   4	  42
   4	  43
   4	  44
   4	  45
   4	  46
   4	  47
   4	  49
   4	  50
   4	  52
   4	  57
   4	  59
   4	  60
   4	  61
   4	  62
   4	  64
   4	  71
   4	  74
   4	  75
   4	  76
   4	  78
   4	  81
   4	  82
   4	  84
   4	  87
   4	  88
   4	  89
   4	  90
   4	  91
   4	  92
   4	  95
   4	  96
   4	  99
   4	 100
   4	 107
   4	 110
   4	 112
   4	 113
   4	 115
   4	 116
   4	 119
   5	  10
   5	  14
   5	  16
   5	  17
   5	  19
   5	  21
   5	  25
   5	  28
   5	  29
   5	  30
   5	  32
   5	  36
   5	  37
   5	  38
   5	  39
   5	  43
   5	  45
   5	  46
   5	  47
   5	  49
   5	  50
   5	  52
   5	  53
   5	  54
   5	  55
   5	  57
   5	  67
   5	  68
   5	  70
   5	  75
   5	  76
   5	  81
   5	  82
   5	  83
   5	  87
   5	  89
   5	  90
   5	  91
   5	  94
   5	  95
   5	  96
   5	  98
   5	 101
   5	 106
   5	 107
   5	 108
   5	 110
   5	 111
   5	 113
   5	 115
   5	 116
   5	 117
   5	 119
   6	   7
   6	   9
   6	  10
   6	  12
   6	  13
   6	  16
   6	  18
   6	  23
   6	  26
   6	  27
   6	  30
   6	  31
   6	  32
   6	  37
   6	  39
   6	  40
   6	  42
   6	  48
   6	  52
   6	  54
   6	  55
   6	  56
   6	  58
   6	  60
   6	  61
   6	  62
   6	  64
   6	  67
   6	  68
   6	  69
   6	  73
   6	  74
   6	  77
   6	  80
   6	  81
   6	  82
   6	  83
   6	  84
   6	  87
   6	  90
   6	  93
   6	  94
   6	  97
   6	  98
   6	 100
   6	 101
   6	 103
   6	 104
   6	 106
   6	 108
   6	 112
   6	 118
   6	 119
   7	  11
   7	  15
   7	  16
   7	  18
   7	  19
   7	  20
   7	  23
   7	  24
   7	  26
   7	  28
   7	  30
   7	  31
   7	  35
   7	  37
   7	  40
   7	  42
   7	  43
   7	  46
   7	  47
   7	  48
   7	  50
   7	  52
   7	  53
   7	  55
   7	  58
   7	  61
   7	  62
   7	  63
   7	  64
   7	  69
   7	  72
   7	  74
   7	  77
   7	  78
   7	  82
   7	  85
   7	  86
   7	  89
   7	  91
   7	  94
   7	  95
   7	  96
   7	  98
   7	  99
   7	 102
   7	 103
   7	 104
   7	 106
   7	 107
   7	 108
   7	 109
   7	 113
   7	 114
   7	 116
   7	 117
   8	   9
   8	  10
   8	  12
   8	  13
   8	  14
   8	  15
   8	  21
   8	  22
   8	  27
   8	  29
   8	  31
   8	  32
   8	  33
   8	  34
   8	  37
   8	  38
   8	  39
   8	  40
   8	  41
   8	  44
   8	  45
   8	  46
   8	  50
   8	  52
   8	  54
   8	  55
   8	  57
   8	  63
   8	  69
   8	  70
   8	  71
   8	  72
   8	  74
   8	  75
   8	  77
   8	  78
   8	  83
   8	  84
   8	  85
   8	  88
   8	  91
   8	  92
   8	  95
   8	  96
   8	  97
   8	  99
   8	 103
   8	 104
   8	 106
   8	 107
   8	 110
   8	 112
   8	 113
   8	 114
   8	 115
   8	 116
   8	 119
   9	  10
   9	  12
   9	  13
   9	  14
   9	  15
   9	  17
   9	  19
   9	  22
   9	  23
   9	  25
   9	  26
   9	  28
   9	  33
   9	  34
   9	  35
   9	  37
   9	  38
   9	  39
   9	  40
   9	  42
   9	  44
   9	  45
   9	  47
   9	  52
   9	  55
   9	  57
   9	  58
   9	  59
   9	  61
   9	  62
   9	  64
   9	  68
   9	  74
   9	  75
   9	  77
   9	  81
   9	  84
   9	  85
   9	  87
   9	  89
   9	  90
   9	  91
   9	  93
   9	  95
   9	  97
   9	  99
   9	 100
   9	 101
   9	 104
   9	 107
   9	 110
   9	 112
   9	 113
   9	 115
  10	  13
  10	  15
  10	  19
  10	  20
  10	  21
  10	  22
  10	  23
  10	  24
  10	  25
  10	  29
  10	  30
  10	  32
  10	  36
  10	  38
  10	  39
  10	  40
  10	  42
  10	  43
  10	  44
  10	  45
  10	  46
  10	  47
  10	  49
  10	  50
  10	  52
  10	  55
  10	  57
  10	  60
  10	  61
  10	  62
  10	  73
  10	  75
  10	  76
  10	  78
  10	  79
  10	  80
  10	  81
  10	  86
  10	  87
  10	  90
  10	  91
  10	  92
  10	  94
  10	  95
  10	  96
  10	  97
  10	 105
  10	 107
  10	 109
  10	 111
  10	 112
  10	 113
  10	 114
  10	 115
  10	 117
  10	 119
  11	  12
  11	  13
  11	  15
  11	  16
  11	  17
  11	  18
  11	  21
  11	  23
  11	  25
  11	  27
  11	  28
  11	  29
  11	  34
  11	  35
  11	  36
  11	  39
  11	  45
  11	  48
  11	  50
  11	  51
  11	  52
  11	  53
  11	  55
  11	  56
  11	  57
  11	  60
  11	  62
  11	  64
  11	  65
  11	  68
  11	  69
  11	  70
  11	  71
  11	  74
  11	  76
  11	  77
  11	  78
  11	  79
  11	  81
  11	  83
  11	  84
  11	  86
  11	  89
  11	  91
  11	  92
  11	  93
  11	  94
  11	  95
  11	  96
  11	  97
  11	  98
  11	 100
  11	 101
  11	 102
  11	 103
  11	 107
  11	 108
  11	 109
  11	 112
  11	 114
  11	 116
  11	 117
  11	 119
  12	  13
  12	  14
  12	  18
  12	  19
  12	  21
  12	  25
  12	  26
  12	  27
  12	  33
  12	  34
  12	  38
  12	  39
  12	  41
  12	  42
  12	  43
  12	  44
  12	  46
  12	  49
  12	  50
  12	  51
  12	  52
  12	  57
  12	  58
  12	  59
  12	  63
  12	  65
  12	  67
  12	  68
  12	  69
  12	  70
  12	  71
  12	  73
  12	  75
  12	  76
  12	  80
  12	  82
  12	  83
  12	  84
  12	  88
  12	  90
  12	  92
  12	  95
  12	  97
  12	  98
  12	  99
  12	 102
  12	 104
  12	 105
  12	 106
  12	 108
  12	 109
  12	 111
  12	 116
  12	 119
  13	  14
  13	  15
  13	  17
  13	  19
  13	  22
  13	  26
  13	  28
  13	  31
  13	  32
  13	  33
  13	  41
  13	  42
  13	  44
  13	  46
  13	  47
  13	  49
  13	  53
  13	  54
  13	  55
  13	  56
  13	  57
  13	  59
  13	  60
  13	  61
  13	  64
  13	  65
  13	  66
  13	  69
  13	  70
  13	  72
  13	  73
  13	  78
  13	  81
  13	  86
  13	  87
  13	  89
  13	  92
  13	  93
  13	  94
  13	  96
  13	  99
  13	 101
  13	 103
  13	 104
  13	 107
  13	 109
  13	 110
  13	 111
  13	 112
  13	 113
  13	 117
  13	 118
  13	 119
  14	  17
  14	  21
  14	  22
  14	  24
  14	  25
  14	  28
  14	  30
  14	  31
  14	  33
  14	  35
  14	  38
  14	  43
  14	  48
  14	  49
  14	  53
  14	  54
  14	  61
  14	  62
  14	  63
  14	  64
  14	  65
  14	  69
  14	  71
  14	  73
  14	  74
  14	  79
  14	  80
  14	  81
  14	  82
  14	  84
  14	  88
  14	  89
  14	  90
  14	  91
  14	  93
  14	  94
  14	  95
  14	  96
  14	  97
  14	  99
  14	 100
  14	 105
  14	 106
  14	 110
  14	 111
  14	 112
  14	 114
  14	 117
  14	 119
  15	  17
  15	  18
  15	  19
  15	  20
  15	  21
  15	  22
  15	  23
  15	  26
  15	  27
  15	  28
  15	  29
  15	  30
  15	  31
  15	  32
  15	  35
  15	  36
  15	  37
  15	  40
  15	  48
  15	  49
  15	  50
  15	  52
  15	  54
  15	  59
  15	  61
  15	  64
  15	  65
  15	  66
  15	  67
  15	  68
  15	  69
  15	  73
  15	  74
  15	  75
  15	  76
  15	  77
  15	  78
  15	  79
  15	  80
  15	  83
  15	  85
  15	  86
  15	  89
  15	  90
  15	  92
  15	  93
  15	  94
  15	  95
  15	 100
  15	 102
  15	 104
  15	 105
  15	 106
  15	 107
  15	 110
  15	 111
  15	 112
  15	 115
  15	 116
  15	 117
  15	 118
  15	 119
  16	  18
  16	  19
  16	  22
  16	  25
  16	  26
  16	  27
  16	  28
  16	  29
  16	  32
  16	  33
  16	  34
  16	  35
  16	  36
  16	  41
  16	  43
  16	  51
  16	  52
  16	  54
  16	  59
  16	  60
  16	  62
  16	  63
  16	  65
  16	  68
  16	  69
  16	  75
  16	  81
  16	  83
  16	  85
  16	  86
  16	  87
  16	  88
  16	  90
  16	  91
  16	  92
  16	  96
  16	  97
  16	 100
  16	 101
  16	 103
  16	 104
  16	 105
  16	 107
  16	 109
  16	 112
  16	 113
  16	 114
  16	 115
  16	 116
  16	 117
  17	  22
  17	  24
  17	  28
  17	  32
  17	  34
  17	  35
  17	  36
  17	  38
  17	  42
  17	  43
  17	  44
  17	  45
  17	  47
  17	  48
  17	  49
  17	  50
  17	  51
  17	  52
  17	  53
  17	  54
  17	  55
  17	  56
  17	  57
  17	  58
  17	  59
  17	  61
  17	  62
  17	  64
  17	  65
  17	  68
  17	  69
  17	  70
  17	  72
  17	  73
  17	  77
  17	  79
  17	  80
  17	  81
  17	  82
  17	  83
  17	  84
  17	  85
  17	  86
  17	  87
  17	  90
  17	  91
  17	  95
  17	  96
  17	  99
  17	 110
  17	 115
  17	 117
  17	 118
  18	  22
  18	  23
  18	  28
  18	  29
  18	  30
  18	  31
  18	  34
  18	  36
  18	  37
  18	  38
  18	  39
  18	  46
  18	  47
  18	  49
  18	  50
  18	  52
  18	  54
  18	  55
  18	  56
  18	  60
  18	  63
  18	  65
  18	  70
  18	  74
  18	  76
  18	  78
  18	  81
  18	  82
  18	  85
  18	  90
  18	  91
  18	  95
  18	  99
  18	 101
  18	 102
  18	 103
  18	 104
  18	 105
  18	 110
  18	 112
  18	 115
  18	 117
  18	 118
  18	 119
  19	  20
  19	  21
  19	  24
  19	  26
  19	  27
  19	  28
  19	  29
  19	  31
  19	  35
  19	  36
  19	  39
  19	  42
  19	  48
  19	  49
  19	  50
  19	  51
  19	  55
  19	  58
  19	  62
  19	  63
  19	  66
  19	  67
  19	  71
  19	  73
  19	  76
  19	  79
  19	  81
  19	  87
  19	  88
  19	  89
  19	  91
  19	  92
  19	  95
  19	  97
  19	  98
  19	 104
  19	 105
  19	 107
  19	 108
  19	 111
  19	 114
  19	 116
  19	 117
  19	 119
  20	  21
  20	  22
  20	  23
  20	  25
  20	  26
  20	  28
  20	  30
  20	  31
  20	  32
  20	  34
  20	  36
  20	  38
  20	  40
  20	  43
  20	  44
  20	  45
  20	  46
  20	  47
  20	  50
  20	  52
  20	  53
  20	  56
  20	  58
  20	  64
  20	  66
  20	  70
  20	  72
  20	  73
  20	  74
  20	  79
  20	  83
  20	  86
  20	  87
  20	  89
  20	  90
  20	  91
  20	  94
  20	  95
  20	  96
  20	 101
  20	 104
  20	 105
  20	 106
  20	 107
  20	 108
  20	 110
  20	 111
  20	 112
  20	 113
  20	 114
  20	 115
  20	 117
  20	 119
  21	  23
  21	  25
  21	  26
  21	  27
  21	  29
  21	  32
  21	  34
  21	  37
  21	  38
  21	  39
  21	  40
  21	  41
  21	  43
  21	  44
  21	  46
  21	  48
  21	  49
  21	  52
  21	  55
  21	  56
  21	  57
  21	  58
  21	  60
  21	  65
  21	  66
  21	  67
  21	  68
  21	  69
  21	  73
  21	  77
  21	  81
  21	  82
  21	  83
  21	  85
  21	  87
  21	  93
  21	  95
  21	  98
  21	 101
  21	 105
  21	 113
  21	 114
  21	 115
  21	 116
  21	 117
  22	  23
  22	  24
  22	  28
  22	  29
  22	  31
  22	  32
  22	  33
  22	  35
  22	  37
  22	  39
  22	  40
  22	  41
  22	  42
  22	  43
  22	  44
  22	  47
  22	  49
  22	  52
  22	  54
  22	  55
  22	  61
  22	  63
  22	  64
  22	  65
  22	  66
  22	  70
  22	  71
  22	  72
  22	  73
  22	  74
  22	  75
  22	  77
  22	  78
  22	  82
  22	  86
  22	  87
  22	  89
  22	  90
  22	  91
  22	  94
  22	  95
  22	  97
  22	  98
  22	  99
  22	 100
  22	 103
  22	 104
  22	 107
  22	 109
  22	 110
  22	 111
  22	 112
  22	 115
  22	 116
  22	 117
  22	 118
  23	  25
  23	  27
  23	  28
  23	  29
  23	  30
  23	  31
  23	  32
  23	  34
  23	  35
  23	  36
  23	  37
  23	  39
  23	  41
  23	  44
  23	  48
  23	  50
  23	  51
  23	  53
  23	  54
  23	  56
  23	  57
  23	  58
  23	  61
  23	  63
  23	  64
  23	  66
  23	  67
  23	  68
  23	  71
  23	  72
  23	  73
  23	  74
  23	  78
  23	  79
  23	  80
  23	  82
  23	  85
  23	  90
  23	  91
  23	  94
  23	  95
  23	  96
  23	  97
  23	  98
  23	 100
  23	 104
  23	 107
  23	 108
  23	 110
  23	 111
  23	 112
  23	 115
  23	 116
  23	 118
  23	 119
  24	  25
  24	  26
  24	  27
  24	  28
  24	  34
  24	  39
  24	  41
  24	  46
  24	  47
  24	  48
  24	  49
  24	  51
  24	  52
  24	  54
  24	  56
  24	  58
  24	  63
  24	  64
  24	  65
  24	  66
  24	  69
  24	  71
  24	  73
  24	  74
  24	  77
  24	  79
  24	  80
  24	  86
  24	  87
  24	  88
  24	  89
  24	  99
  24	 101
  24	 103
  24	 106
  24	 113
  24	 114
  24	 115
  24	 117
  24	 119
  25	  26
  25	  28
  25	  29
  25	  30
  25	  32
  25	  34
  25	  35
  25	  36
  25	  37
  25	  38
  25	  40
  25	  41
  25	  43
  25	  47
  25	  48
  25	  49
  25	  50
  25	  51
  25	  52
  25	  55
  25	  56
  25	  57
  25	  59
  25	  61
  25	  62
  25	  64
  25	  65
  25	  67
  25	  68
  25	  73
  25	  74
  25	  75
  25	  76
  25	  77
  25	  82
  25	  83
  25	  86
  25	  88
  25	  89
  25	  96
  25	  97
  25	  99
  25	 100
  25	 101
  25	 102
  25	 106
  25	 108
  25	 111
  25	 114
  25	 115
  25	 117
  25	 118
  26	  30
  26	  32
  26	  33
  26	  34
  26	  36
  26	  37
  26	  38
  26	  39
  26	  40
  26	  41
  26	  42
  26	  44
  26	  46
  26	  53
  26	  54
  26	  55
  26	  57
  26	  60
  26	  62
  26	  64
  26	  69
  26	  70
  26	  71
  26	  72
  26	  73
  26	  74
  26	  76
  26	  77
  26	  80
  26	  82
  26	  84
  26	  85
  26	  86
  26	  87
  26	  88
  26	  89
  26	  92
  26	  96
  26	  98
  26	  99
  26	 100
  26	 102
  26	 103
  26	 104
  26	 105
  26	 107
  26	 108
  26	 111
  26	 113
  26	 116
  26	 117
  26	 118
  27	  29
  27	  35
  27	  37
  27	  38
  27	  39
  27	  42
  27	  44
  27	  45
  27	  46
  27	  47
  27	  48
  27	  49
  27	  50
  27	  53
  27	  54
  27	  57
  27	  58
  27	  59
  27	  62
  27	  63
  27	  64
  27	  65
  27	  66
  27	  67
  27	  68
  27	  70
  27	  71
  27	  73
  27	  75
  27	  80
  27	  83
  27	  85
  27	  87
  27	  89
  27	  93
  27	  94
  27	  96
  27	  97
  27	  99
  27	 105
  27	 107
  27	 111
  27	 112
  27	 113
  27	 116
  27	 118
  28	  29
  28	  33
  28	  34
  28	  36
  28	  39
  28	  42
  28	  43
  28	  46
  28	  50
  28	  51
  28	  54
  28	  59
  28	  60
  28	  61
  28	  63
  28	  66
  28	  67
  28	  76
  28	  80
  28	  83
  28	  85
  28	  86
  28	  87
  28	  90
  28	  94
  28	  96
  28	  99
  28	 100
  28	 101
  28	 103
  28	 105
  28	 106
  28	 108
  28	 110
  28	 115
  28	 116
  28	 118
  28	 119
  29	  33
  29	  34
  29	  38
  29	  39
  29	  40
  29	  42
  29	  43
  29	  44
  29	  46
  29	  47
  29	  48
  29	  49
  29	  51
  29	  52
  29	  53
  29	  58
  29	  59
  29	  60
  29	  61
  29	  63
  29	  65
  29	  67
  29	  68
  29	  69
  29	  72
  29	  74
  29	  76
  29	  78
  29	  84
  29	  85
  29	  87
  29	  88
  29	  93
  29	  98
  29	  99
  29	 104
  29	 105
  29	 106
  29	 108
  29	 109
  29	 111
  29	 113
  29	 115
  29	 117
  29	 118
  30	  33
  30	  37
  30	  40
  30	  43
  30	  45
  30	  46
  30	  47
  30	  48
  30	  50
  30	  54
  30	  55
  30	  57
  30	  58
  30	  59
  30	  60
  30	  63
  30	  64
  30	  65
  30	  66
  30	  68
  30	  72
  30	  73
  30	  74
  30	  75
  30	  76
  30	  79
  30	  81
  30	  82
  30	  83
  30	  85
  30	  86
  30	  89
  30	  90
  30	 105
  30	 109
  30	 113
  30	 114
  30	 116
  30	 118
  31	  34
  31	  36
  31	  39
  31	  40
  31	  41
  31	  47
  31	  48
  31	  51
  31	  54
  31	  55
  31	  57
  31	  58
  31	  59
  31	  65
  31	  71
  31	  72
  31	  74
  31	  76
  31	  78
  31	  79
  31	  80
  31	  86
  31	  88
  31	  90
  31	  91
  31	 100
  31	 105
  31	 109
  31	 110
  31	 111
  31	 114
  31	 115
  31	 116
  31	 118
  32	  34
  32	  35
  32	  36
  32	  37
  32	  38
  32	  40
  32	  41
  32	  42
  32	  45
  32	  47
  32	  49
  32	  52
  32	  53
  32	  54
  32	  55
  32	  56
  32	  59
  32	  60
  32	  63
  32	  64
  32	  66
  32	  71
  32	  72
  32	  73
  32	  75
  32	  79
  32	  80
  32	  81
  32	  83
  32	  85
  32	  87
  32	  88
  32	  89
  32	  96
  32	  97
  32	  98
  32	 100
  32	 101
  32	 102
  32	 103
  32	 106
  32	 107
  32	 108
  32	 109
  32	 110
  32	 111
  32	 116
  32	 117
  32	 118
  33	  34
  33	  36
  33	  40
  33	  41
  33	  44
  33	  45
  33	  51
  33	  52
  33	  55
  33	  59
  33	  60
  33	  61
  33	  63
  33	  65
  33	  67
  33	  70
  33	  73
  33	  75
  33	  76
  33	  78
  33	  79
  33	  81
  33	  82
  33	  86
  33	  89
  33	  90
  33	  93
  33	  94
  33	  95
  33	  96
  33	  98
  33	 100
  33	 101
  33	 103
  33	 106
  33	 111
  33	 114
  33	 115
  33	 116
  33	 117
  33	 119
  34	  40
  34	  45
  34	  51
  34	  53
  34	  54
  34	  55
  34	  56
  34	  57
  34	  58
  34	  59
  34	  60
  34	  61
  34	  62
  34	  63
  34	  65
  34	  66
  34	  71
  34	  75
  34	  76
  34	  77
  34	  78
  34	  82
  34	  83
  34	  84
  34	  86
  34	  87
  34	  88
  34	  90
  34	  94
  34	  95
  34	  97
  34	 100
  34	 105
  34	 106
  34	 107
  34	 110
  34	 111
  34	 113
  34	 114
  34	 115
  34	 117
  34	 118
  35	  39
  35	  40
  35	  43
  35	  44
  35	  45
  35	  48
  35	  51
  35	  53
  35	  55
  35	  56
  35	  60
  35	  61
  35	  65
  35	  66
  35	  68
  35	  70
  35	  77
  35	  81
  35	  82
  35	  86
  35	  90
  35	  91
  35	  92
  35	  94
  35	  97
  35	  99
  35	 100
  35	 101
  35	 104
  35	 106
  35	 107
  35	 111
  35	 112
  35	 115
  35	 118
  36	  40
  36	  47
  36	  50
  36	  51
  36	  52
  36	  56
  36	  57
  36	  62
  36	  63
  36	  64
  36	  71
  36	  73
  36	  74
  36	  75
  36	  77
  36	  78
  36	  82
  36	  87
  36	  88
  36	  89
  36	  90
  36	  91
  36	  92
  36	  95
  36	  96
  36	  98
  36	  99
  36	 100
  36	 101
  36	 105
  36	 106
  36	 108
  36	 109
  36	 112
  36	 113
  36	 114
  36	 115
  36	 116
  37	  39
  37	  42
  37	  43
  37	  44
  37	  47
  37	  48
  37	  51
  37	  59
  37	  62
  37	  65
  37	  66
  37	  70
  37	  71
  37	  72
  37	  84
  37	  87
  37	  88
  37	  89
  37	  90
  37	  91
  37	  92
  37	  94
  37	  95
  37	  96
  37	  97
  37	  98
  37	 100
  37	 102
  37	 103
  37	 105
  37	 107
  37	 115
  37	 116
  38	  39
  38	  43
  38	  44
  38	  45
  38	  46
  38	  49
  38	  54
  38	  55
  38	  56
  38	  57
  38	  58
  38	  59
  38	  61
  38	  64
  38	  66
  38	  72
  38	  73
  38	  75
  38	  76
  38	  78
  38	  79
  38	  81
  38	  83
  38	  87
  38	  89
  38	  92
  38	  93
  38	  96
  38	  97
  38	  98
  38	  99
  38	 102
  38	 103
  38	 105
  38	 108
  38	 112
  38	 116
  38	 119
  39	  40
  39	  42
  39	  47
  39	  49
  39	  50
  39	  55
  39	  56
  39	  57
  39	  60
  39	  61
  39	  63
  39	  64
  39	  66
  39	  67
  39	  71
  39	  72
  39	  74
  39	  78
  39	  84
  39	  88
  39	  91
  39	  92
  39	  95
  39	  96
  39	 100
  39	 101
  39	 104
  39	 106
  39	 112
  39	 113
  39	 115
  39	 116
  39	 119
  40	  42
  40	  46
  40	  52
  40	  53
  40	  54
  40	  55
  40	  56
  40	  57
  40	  58
  40	  59
  40	  60
  40	  61
  40	  63
  40	  64
  40	  65
  40	  67
  40	  69
  40	  70
  40	  73
  40	  75
  40	  82
  40	  86
  40	  88
  40	  89
  40	  90
  40	  91
  40	  92
  40	  93
  40	  95
  40	  96
  40	  99
  40	 100
  40	 102
  40	 104
  40	 105
  40	 106
  40	 108
  40	 109
  40	 110
  40	 111
  40	 113
  40	 114
  40	 115
  40	 116
  40	 119
  41	  44
  41	  45
  41	  49
  41	  53
  41	  56
  41	  57
  41	  58
  41	  59
  41	  61
  41	  62
  41	  72
  41	  73
  41	  78
  41	  79
  41	  80
  41	  82
  41	  84
  41	  85
  41	  86
  41	  89
  41	  91
  41	  93
  41	  96
  41	 100
  41	 104
  41	 105
  41	 106
  41	 109
  41	 111
  41	 114
  41	 117
  41	 119
  42	  44
  42	  45
  42	  46
  42	  47
  42	  50
  42	  51
  42	  52
  42	  54
  42	  55
  42	  57
  42	  59
  42	  60
  42	  61
  42	  63
  42	  64
  42	  66
  42	  68
  42	  69
  42	  72
  42	  74
  42	  75
  42	  77
  42	  78
  42	  79
  42	  83
  42	  84
  42	  85
  42	  86
  42	  89
  42	  90
  42	  91
  42	  92
  42	  93
  42	  94
  42	  95
  42	  96
  42	  99
  42	 100
  42	 102
  42	 103
  42	 104
  42	 109
  42	 110
  42	 111
  42	 113
  42	 115
  42	 117
  42	 118
  42	 119
  43	  44
  43	  45
  43	  46
  43	  47
  43	  48
  43	  49
  43	  53
  43	  57
  43	  67
  43	  69
  43	  70
  43	  71
  43	  72
  43	  73
  43	  74
  43	  75
  43	  78
  43	  80
  43	  82
  43	  87
  43	  89
  43	  91
  43	  92
  43	  93
  43	  94
  43	  96
  43	  97
  43	  99
  43	 100
  43	 102
  43	 105
  43	 106
  43	 109
  43	 111
  43	 112
  43	 114
  43	 115
  43	 118
  44	  45
  44	  48
  44	  50
  44	  51
  44	  53
  44	  56
  44	  57
  44	  67
  44	  69
  44	  70
  44	  71
  44	  74
  44	  77
  44	  78
  44	  81
  44	  82
  44	  84
  44	  85
  44	  86
  44	  88
  44	  89
  44	  90
  44	  91
  44	  93
  44	  98
  44	 101
  44	 102
  44	 103
  44	 104
  44	 105
  44	 107
  44	 108
  44	 109
  44	 110
  44	 111
  44	 112
  44	 118
  44	 119
  45	  47
  45	  50
  45	  51
  45	  54
  45	  55
  45	  57
  45	  58
  45	  62
  45	  64
  45	  66
  45	  67
  45	  68
  45	  73
  45	  78
  45	  79
  45	  81
  45	  82
  45	  85
  45	  86
  45	  87
  45	  90
  45	  91
  45	  96
  45	  97
  45	  98
  45	  99
  45	 100
  45	 102
  45	 103
  45	 104
  45	 105
  45	 108
  45	 109
  45	 111
  45	 112
  45	 113
  45	 114
  45	 115
  45	 116
  45	 118
  45	 119
  46	  48
  46	  50
  46	  51
  46	  52
  46	  56
  46	  57
  46	  58
  46	  59
  46	  60
  46	  61
  46	  62
  46	  63
  46	  64
  46	  67
  46	  69
  46	  70
  46	  72
  46	  73
  46	  77
  46	  78
  46	  79
  46	  83
  46	  86
  46	  89
  46	  90
  46	  91
  46	  92
  46	  94
  46	  95
  46	  96
  46	  97
  46	 100
  46	 101
  46	 104
  46	 106
  46	 107
  46	 108
  46	 111
  46	 113
  46	 117
  46	 118
  47	  48
  47	  49
  47	  51
  47	  55
  47	  58
  47	  59
  47	  61
  47	  62
  47	  64
  47	  65
  47	  66
  47	  67
  47	  68
  47	  69
  47	  73
  47	  75
  47	  76
  47	  80
  47	  82
  47	  83
  47	  85
  47	  89
  47	  91
  47	  92
  47	  94
  47	  97
  47	  99
  47	 106
  47	 110
  47	 113
  47	 114
  47	 116
  48	  50
  48	  56
  48	  57
  48	  59
  48	  61
  48	  63
  48	  66
  48	  70
  48	  73
  48	  74
  48	  77
  48	  78
  48	  80
  48	  85
  48	  87
  48	  88
  48	  89
  48	  90
  48	  92
  48	  93
  48	  95
  48	  96
  48	  97
  48	  98
  48	 100
  48	 101
  48	 102
  48	 104
  48	 106
  48	 107
  48	 108
  48	 109
  48	 110
  48	 112
  48	 113
  48	 114
  48	 115
  48	 116
  48	 119
  49	  50
  49	  52
  49	  54
  49	  56
  49	  59
  49	  60
  49	  61
  49	  66
  49	  69
  49	  70
  49	  71
  49	  72
  49	  75
  49	  77
  49	  82
  49	  84
  49	  85
  49	  86
  49	  88
  49	  89
  49	  90
  49	  93
  49	  98
  49	  99
  49	 102
  49	 105
  49	 106
  49	 107
  49	 108
  49	 113
  49	 115
  49	 116
  49	 118
  50	  52
  50	  54
  50	  55
  50	  57
  50	  60
  50	  62
  50	  63
  50	  64
  50	  66
  50	  67
  50	  68
  50	  70
  50	  71
  50	  72
  50	  73
  50	  74
  50	  75
  50	  76
  50	  79
  50	  81
  50	  82
  50	  84
  50	  86
  50	  88
  50	  90
  50	  91
  50	  94
  50	  95
  50	  96
  50	  97
  50	 101
  50	 104
  50	 105
  50	 108
  50	 110
  50	 112
  50	 116
  50	 117
  50	 118
  51	  52
  51	  54
  51	  55
  51	  56
  51	  58
  51	  59
  51	  60
  51	  61
  51	  62
  51	  63
  51	  64
  51	  65
  51	  66
  51	  68
  51	  73
  51	  75
  51	  77
  51	  78
  51	  80
  51	  83
  51	  85
  51	  86
  51	  89
  51	  91
  51	  92
  51	  93
  51	  94
  51	  97
  51	  98
  51	 101
  51	 102
  51	 104
  51	 105
  51	 108
  51	 109
  51	 111
  51	 112
  51	 117
  52	  55
  52	  56
  52	  59
  52	  60
  52	  62
  52	  64
  52	  66
  52	  67
  52	  68
  52	  70
  52	  71
  52	  73
  52	  75
  52	  77
  52	  78
  52	  80
  52	  83
  52	  84
  52	  85
  52	  86
  52	  88
  52	  89
  52	  90
  52	  91
  52	  93
  52	  95
  52	  97
  52	  99
  52	 101
  52	 102
  52	 104
  52	 108
  52	 109
  52	 110
  52	 114
  52	 116
  52	 119
  53	  55
  53	  56
  53	  57
  53	  61
  53	  62
  53	  64
  53	  67
  53	  68
  53	  69
  53	  70
  53	  71
  53	  74
  53	  75
  53	  82
  53	  83
  53	  88
  53	  89
  53	  91
  53	  94
  53	  95
  53	  96
  53	  97
  53	  98
  53	  99
  53	 100
  53	 101
  53	 102
  53	 103
  53	 104
  53	 107
  53	 109
  53	 111
  53	 112
  53	 113
  53	 116
  53	 117
  53	 119
  54	  55
  54	  56
  54	  58
  54	  59
  54	  60
  54	  61
  54	  62
  54	  63
  54	  64
  54	  67
  54	  68
  54	  72
  54	  73
  54	  76
  54	  78
  54	  79
  54	  80
  54	  82
  54	  86
  54	  87
  54	  91
  54	  93
  54	  94
  54	  96
  54	  97
  54	 101
  54	 102
  54	 103
  54	 104
  54	 106
  54	 109
  54	 116
  54	 119
  55	  56
  55	  60
  55	  65
  55	  66
  55	  69
  55	  70
  55	  71
  55	  75
  55	  76
  55	  77
  55	  83
  55	  84
  55	  86
  55	  87
  55	  88
  55	  90
  55	  92
  55	  93
  55	  94
  55	  98
  55	  99
  55	 100
  55	 102
  55	 103
  55	 104
  55	 105
  55	 106
  55	 110
  55	 112
  55	 113
  55	 114
  55	 116
  55	 119
  56	  61
  56	  63
  56	  64
  56	  65
  56	  66
  56	  67
  56	  71
  56	  72
  56	  73
  56	  75
  56	  76
  56	  81
  56	  82
  56	  83
  56	  84
  56	  86
  56	  87
  56	  90
  56	  91
  56	  93
  56	  94
  56	  95
  56	  97
  56	 103
  56	 104
  56	 105
  56	 108
  56	 112
  56	 114
  56	 115
  56	 116
  56	 117
  56	 118
  57	  59
  57	  62
  57	  64
  57	  67
  57	  68
  57	  69
  57	  70
  57	  72
  57	  73
  57	  77
  57	  78
  57	  80
  57	  81
  57	  82
  57	  86
  57	  87
  57	  90
  57	  91
  57	  92
  57	  95
  57	  96
  57	  97
  57	  98
  57	 100
  57	 103
  57	 104
  57	 106
  57	 107
  57	 108
  57	 109
  57	 119
  58	  59
  58	  60
  58	  61
  58	  63
  58	  65
  58	  66
  58	  71
  58	  72
  58	  73
  58	  75
  58	  76
  58	  77
  58	  79
  58	  80
  58	  82
  58	  83
  58	  86
  58	  87
  58	  88
  58	  89
  58	  90
  58	  91
  58	  93
  58	 100
  58	 103
  58	 105
  58	 106
  58	 107
  58	 109
  58	 110
  58	 111
  58	 113
  58	 114
  58	 115
  58	 117
  58	 119
  59	  60
  59	  61
  59	  63
  59	  66
  59	  67
  59	  68
  59	  71
  59	  73
  59	  74
  59	  77
  59	  78
  59	  80
  59	  83
  59	  87
  59	  88
  59	  91
  59	  92
  59	  93
  59	  95
  59	  96
  59	  97
  59	  98
  59	  99
  59	 101
  59	 102
  59	 104
  59	 108
  59	 109
  59	 111
  59	 113
  59	 116
  59	 117
  59	 119
  60	  61
  60	  62
  60	  63
  60	  64
  60	  66
  60	  67
  60	  69
  60	  70
  60	  71
  60	  72
  60	  73
  60	  74
  60	  75
  60	  76
  60	  81
  60	  82
  60	  83
  60	  84
  60	  87
  60	  89
  60	  91
  60	  95
  60	 100
  60	 101
  60	 102
  60	 103
  60	 104
  60	 109
  60	 110
  60	 117
  60	 119
  61	  64
  61	  66
  61	  69
  61	  71
  61	  72
  61	  73
  61	  75
  61	  80
  61	  81
  61	  82
  61	  85
  61	  86
  61	  89
  61	  96
  61	  97
  61	  98
  61	 102
  61	 108
  61	 109
  61	 111
  61	 112
  61	 114
  61	 116
  61	 119
  62	  64
  62	  66
  62	  73
  62	  74
  62	  75
  62	  77
  62	  78
  62	  79
  62	  80
  62	  82
  62	  83
  62	  84
  62	  85
  62	  86
  62	  87
  62	  88
  62	  89
  62	  95
  62	  97
  62	  98
  62	  99
  62	 101
  62	 105
  62	 106
  62	 109
  62	 112
  62	 114
  62	 117
  62	 118
  63	  64
  63	  67
  63	  68
  63	  69
  63	  70
  63	  71
  63	  72
  63	  73
  63	  74
  63	  75
  63	  76
  63	  77
  63	  78
  63	  80
  63	  82
  63	  85
  63	  86
  63	  90
  63	  91
  63	  93
  63	  95
  63	  97
  63	  98
  63	 106
  63	 107
  63	 109
  63	 110
  63	 111
  64	  67
  64	  69
  64	  70
  64	  73
  64	  76
  64	  77
  64	  81
  64	  82
  64	  83
  64	  84
  64	  85
  64	  87
  64	  90
  64	  92
  64	  95
  64	  97
  64	  98
  64	  99
  64	 101
  64	 107
  64	 114
  64	 115
  64	 116
  64	 117
  64	 119
  65	  66
  65	  68
  65	  69
  65	  70
  65	  71
  65	  72
  65	  73
  65	  74
  65	  75
  65	  76
  65	  77
  65	  79
  65	  82
  65	  84
  65	  85
  65	  86
  65	  87
  65	  88
  65	  91
  65	  92
  65	  94
  65	  95
  65	  96
  65	  97
  65	  98
  65	  99
  65	 103
  65	 105
  65	 106
  65	 107
  65	 108
  65	 109
  65	 110
  65	 111
  65	 112
  65	 114
  65	 116
  65	 117
  65	 119
  66	  67
  66	  69
  66	  70
  66	  71
  66	  72
  66	  73
  66	  74
  66	  76
  66	  77
  66	  79
  66	  83
  66	  86
  66	  88
  66	  90
  66	  91
  66	  97
  66	  98
  66	  99
  66	 103
  66	 104
  66	 105
  66	 108
  66	 109
  66	 112
  66	 114
  66	 117
  66	 119
  67	  70
  67	  71
  67	  72
  67	  74
  67	  75
  67	  76
  67	  78
  67	  81
  67	  83
  67	  86
  67	  87
  67	  89
  67	  91
  67	  95
  67	  96
  67	  99
  67	 100
  67	 106
  67	 107
  67	 110
  67	 111
  67	 112
  67	 113
  67	 115
  67	 117
  67	 118
  67	 119
  68	  70
  68	  74
  68	  75
  68	  77
  68	  84
  68	  86
  68	  89
  68	  92
  68	  93
  68	  94
  68	  95
  68	  96
  68	  97
  68	  98
  68	 100
  68	 102
  68	 103
  68	 104
  68	 106
  68	 108
  68	 109
  68	 111
  68	 113
  68	 115
  68	 116
  68	 117
  68	 118
  68	 119
  69	  70
  69	  72
  69	  73
  69	  74
  69	  76
  69	  77
  69	  78
  69	  81
  69	  82
  69	  85
  69	  86
  69	  88
  69	  89
  69	  92
  69	  95
  69	 103
  69	 104
  69	 107
  69	 109
  69	 110
  69	 113
  69	 115
  69	 116
  69	 118
  70	  78
  70	  79
  70	  80
  70	  81
  70	  82
  70	  83
  70	  85
  70	  91
  70	  92
  70	  93
  70	  94
  70	  96
  70	  97
  70	  98
  70	 101
  70	 103
  70	 104
  70	 105
  70	 106
  70	 109
  70	 112
  70	 115
  70	 116
  70	 117
  70	 118
  71	  73
  71	  74
  71	  79
  71	  80
  71	  82
  71	  85
  71	  87
  71	  89
  71	  91
  71	  93
  71	  94
  71	  99
  71	 102
  71	 103
  71	 106
  71	 107
  71	 110
  71	 113
  71	 115
  71	 117
  71	 119
  72	  77
  72	  79
  72	  81
  72	  83
  72	  84
  72	  85
  72	  87
  72	  88
  72	  91
  72	  92
  72	  93
  72	  94
  72	  96
  72	  97
  72	  99
  72	 100
  72	 101
  72	 102
  72	 108
  72	 109
  72	 111
  72	 112
  72	 113
  72	 114
  72	 116
  73	  74
  73	  75
  73	  76
  73	  77
  73	  82
  73	  83
  73	  84
  73	  86
  73	  88
  73	  89
  73	  90
  73	  93
  73	  94
  73	  96
  73	  99
  73	 105
  73	 106
  73	 110
  73	 111
  73	 112
  73	 113
  73	 115
  73	 116
  73	 117
  74	  77
  74	  80
  74	  81
  74	  83
  74	  84
  74	  85
  74	  86
  74	  89
  74	  91
  74	  93
  74	  95
  74	  96
  74	  97
  74	  98
  74	 100
  74	 101
  74	 103
  74	 105
  74	 108
  74	 109
  74	 111
  74	 113
  74	 115
  74	 116
  74	 118
  74	 119
  75	  78
  75	  79
  75	  80
  75	  82
  75	  84
  75	  85
  75	  88
  75	  91
  75	  92
  75	  95
  75	  96
  75	  97
  75	  98
  75	 100
  75	 102
  75	 103
  75	 107
  75	 110
  75	 111
  75	 112
  75	 113
  75	 114
  76	  83
  76	  85
  76	  86
  76	  87
  76	  88
  76	  93
  76	  95
  76	  96
  76	  97
  76	  98
  76	  99
  76	 104
  76	 109
  76	 110
  76	 111
  76	 112
  76	 114
  76	 115
  76	 119
  77	  81
  77	  82
  77	  83
  77	  86
  77	  88
  77	  90
  77	  91
  77	  92
  77	  96
  77	  98
  77	 102
  77	 104
  77	 106
  77	 107
  77	 109
  77	 111
  77	 113
  77	 115
  77	 116
  77	 117
  78	  79
  78	  80
  78	  83
  78	  84
  78	  85
  78	  86
  78	  87
  78	  88
  78	  89
  78	  90
  78	  93
  78	  94
  78	  97
  78	 100
  78	 102
  78	 106
  78	 109
  78	 110
  78	 113
  78	 116
  78	 118
  79	  80
  79	  81
  79	  83
  79	  84
  79	  86
  79	  87
  79	  88
  79	  89
  79	  91
  79	  94
  79	  95
  79	  97
  79	  99
  79	 100
  79	 102
  79	 104
  79	 106
  79	 109
  79	 110
  79	 111
  79	 112
  79	 114
  79	 116
  79	 117
  79	 118
  80	  81
  80	  86
  80	  87
  80	  88
  80	  90
  80	  93
  80	  97
  80	  99
  80	 100
  80	 104
  80	 105
  80	 106
  80	 107
  80	 108
  80	 109
  80	 110
  80	 113
  80	 114
  80	 118
  80	 119
  81	  82
  81	  84
  81	  86
  81	  88
  81	  90
  81	  91
  81	  92
  81	  93
  81	  94
  81	  95
  81	  97
  81	  99
  81	 100
  81	 103
  81	 107
  81	 110
  81	 111
  81	 112
  81	 113
  81	 117
  82	  83
  82	  86
  82	  88
  82	  89
  82	  91
  82	  92
  82	  97
  82	  99
  82	 102
  82	 106
  82	 107
  82	 110
  82	 111
  82	 112
  82	 113
  82	 114
  82	 117
  82	 119
  83	  84
  83	  87
  83	  89
  83	  90
  83	  91
  83	  93
  83	  95
  83	  96
  83	  98
  83	  99
  83	 104
  83	 106
  83	 109
  83	 111
  83	 112
  83	 116
  83	 117
  83	 118
  84	  85
  84	  87
  84	  89
  84	  90
  84	  91
  84	  93
  84	  96
  84	  98
  84	  99
  84	 100
  84	 102
  84	 103
  84	 104
  84	 105
  84	 108
  84	 109
  84	 110
  84	 111
  84	 112
  84	 113
  84	 117
  84	 118
  84	 119
  85	  94
  85	  95
  85	  98
  85	  99
  85	 101
  85	 104
  85	 105
  85	 109
  85	 110
  85	 113
  85	 114
  85	 115
  85	 118
  85	 119
  86	  87
  86	  88
  86	  89
  86	  97
  86	 100
  86	 101
  86	 103
  86	 104
  86	 106
  86	 107
  86	 108
  86	 109
  86	 110
  86	 111
  86	 112
  86	 113
  86	 114
  86	 115
  86	 116
  86	 117
  86	 119
  87	  88
  87	  89
  87	  92
  87	  96
  87	  98
  87	  99
  87	 100
  87	 103
  87	 104
  87	 106
  87	 109
  87	 113
  87	 114
  87	 117
  87	 118
  88	  90
  88	  91
  88	  92
  88	  95
  88	  96
  88	  99
  88	 104
  88	 110
  88	 112
  88	 115
  88	 118
  88	 119
  89	  91
  89	  94
  89	  95
  89	  99
  89	 100
  89	 101
  89	 102
  89	 105
  89	 106
  89	 108
  89	 109
  89	 110
  89	 115
  89	 116
  89	 117
  89	 119
  90	  91
  90	  93
  90	  97
  90	 101
  90	 103
  90	 105
  90	 106
  90	 107
  90	 108
  90	 113
  90	 114
  90	 116
  90	 118
  90	 119
  91	  92
  91	  93
  91	  94
  91	  96
  91	  98
  91	  99
  91	 100
  91	 102
  91	 103
  91	 106
  91	 108
  91	 111
  91	 112
  91	 114
  91	 117
  92	  93
  92	  94
  92	  95
  92	  96
  92	  97
  92	 101
  92	 102
  92	 104
  92	 106
  92	 109
  92	 110
  92	 111
  92	 113
  92	 116
  92	 117
  93	  94
  93	  95
  93	  99
  93	 101
  93	 104
  93	 105
  93	 107
  93	 109
  93	 112
  93	 113
  93	 116
  93	 118
  93	 119
  94	  95
  94	  96
  94	  97
  94	  98
  94	  99
  94	 100
  94	 103
  94	 104
  94	 106
  94	 111
  94	 113
  94	 114
  94	 115
  94	 116
  94	 117
  94	 118
  95	  98
  95	  99
  95	 102
  95	 103
  95	 105
  95	 107
  95	 109
  95	 110
  95	 111
  95	 112
  95	 115
  96	  98
  96	 100
  96	 101
  96	 103
  96	 104
  96	 105
  96	 108
  96	 111
  96	 112
  96	 115
  96	 118
  97	  98
  97	 102
  97	 103
  97	 104
  97	 105
  97	 107
  97	 108
  97	 110
  97	 111
  97	 113
  97	 115
  97	 117
  98	  99
  98	 100
  98	 102
  98	 105
  98	 107
  98	 108
  98	 109
  98	 110
  98	 111
  98	 114
  98	 115
  98	 116
  99	 100
  99	 101
  99	 102
  99	 103
  99	 105
  99	 106
  99	 107
  99	 108
  99	 109
  99	 111
  99	 112
  99	 113
  99	 114
  99	 116
  99	 117
 100	 101
 100	 108
 100	 109
 100	 113
 100	 114
 100	 115
 100	 117
 100	 119
 101	 103
 101	 105
 101	 106
 101	 108
 101	 111
 101	 113
 101	 115
 101	 116
 101	 118
 102	 105
 102	 108
 102	 109
 102	 111
 102	 115
 102	 116
 103	 104
 103	 106
 103	 108
 103	 111
 103	 114
 103	 115
 103	 118
 104	 105
 104	 106
 104	 110
 104	 112
 104	 113
 104	 114
 104	 115
 104	 116
 104	 118
 104	 119
 105	 106
 105	 107
 105	 108
 105	 109
 105	 110
 105	 112
 105	 113
 105	 114
 105	 117
 105	 118
 106	 107
 106	 108
 106	 109
 106	 112
 106	 116
 106	 117
 106	 118
 106	 119
 107	 110
 107	 112
 107	 113
 107	 115
 107	 116
 107	 117
 108	 109
 108	 110
 108	 111
 108	 112
 108	 115
 108	 117
 108	 119
 109	 112
 109	 115
 109	 117
 110	 111
 110	 112
 110	 115
 110	 116
 111	 114
 112	 113
 112	 114
 112	 115
 112	 116
 112	 117
 112	 118
 112	 119
 113	 114
 113	 115
 113	 117
 113	 118
 114	 115
 114	 116
 114	 117
 114	 119
 115	 117
 115	 118
 116	 119
 117	 118
;
